Read MPS format model from file dat/rmp/DER_96_32768_20.mps
Reading time = 3.39 seconds
: 32864 rows, 114976 columns, 9922690 nonzeros
Gurobi Optimizer version 9.0.0 build v9.0.0rc2 (linux64)
Optimize a model with 32864 rows, 114976 columns and 9922690 nonzeros
Model fingerprint: 0xed50400d
Coefficient statistics:
  Matrix range     [1e-13, 1e+01]
  Objective range  [8e-01, 1e+03]
  Bounds range     [2e+05, 2e+05]
  RHS range        [1e+00, 1e+00]
Ordering time: 0.09s

Barrier statistics:
 AA' NZ     : 2.952e+06
 Factor NZ  : 3.304e+06 (roughly 90 MBytes of memory)
 Factor Ops : 3.447e+08 (less than 1 second per iteration)
 Threads    : 1

                  Objective                Residual
Iter       Primal          Dual         Primal    Dual     Compl     Time
   0   1.28119761e+10 -7.85430237e+08  3.07e+08 1.90e-02  2.17e+06     3s
   1   1.65658911e+08 -1.10868555e+08  3.45e+06 2.73e-12  2.54e+04     3s
   2   1.84390407e+07 -3.34748657e+07  3.75e+05 3.64e-12  2.98e+03     4s
   3   8.18482682e+05 -1.82392397e+07  1.16e+04 3.64e-12  2.38e+02     5s
   4   2.31374979e+05 -2.10468165e+06  9.76e+00 1.82e-12  2.03e+01     6s
   5   2.30264228e+05 -2.37515989e+05  1.92e-01 3.64e-12  4.07e+00     6s
   6   2.29943350e+05  1.41105906e+05  7.40e-04 5.46e-12  7.72e-01     7s
   7   2.28722481e+05  1.99664834e+05  1.44e-09 3.64e-12  2.53e-01     8s
   8   2.27761016e+05  2.04988263e+05  1.20e-09 1.82e-12  1.98e-01     9s
   9   2.26730831e+05  2.23216013e+05  6.28e-10 3.64e-12  3.05e-02    10s
  10   2.26040360e+05  2.24372760e+05  1.97e-09 3.64e-12  1.45e-02    11s
  11   2.25846163e+05  2.24606724e+05  4.06e-09 2.73e-12  1.08e-02    11s
  12   2.25662268e+05  2.24801153e+05  3.83e-09 3.64e-12  7.48e-03    12s
  13   2.25592379e+05  2.24846631e+05  4.82e-09 1.82e-12  6.48e-03    13s
  14   2.25531690e+05  2.24897639e+05  4.51e-09 3.64e-12  5.51e-03    14s
  15   2.25483742e+05  2.24934447e+05  4.62e-09 1.82e-12  4.77e-03    15s
  16   2.25432747e+05  2.24963376e+05  4.64e-09 1.82e-12  4.08e-03    15s
  17   2.25256899e+05  2.24994944e+05  1.01e-08 1.82e-12  2.28e-03    16s
  18   2.25169845e+05  2.25006807e+05  1.74e-08 1.82e-12  1.42e-03    17s
  19   2.25146182e+05  2.25014445e+05  1.42e-08 1.82e-12  1.14e-03    18s
  20   2.25114258e+05  2.25020396e+05  1.43e-08 1.82e-12  8.16e-04    19s
  21   2.25095442e+05  2.25030086e+05  1.29e-08 1.82e-12  5.68e-04    20s
  22   2.25073831e+05  2.25035825e+05  1.59e-08 1.82e-12  3.30e-04    21s
  23   2.25059692e+05  2.25039207e+05  2.67e-08 3.64e-12  1.78e-04    22s
  24   2.25048194e+05  2.25042962e+05  3.37e-08 1.82e-12  4.55e-05    23s
  25   2.25046889e+05  2.25043764e+05  2.22e-08 3.15e-12  2.72e-05    24s
  26   2.25046443e+05  2.25043973e+05  1.94e-08 3.78e-12  2.15e-05    25s
  27   2.25045699e+05  2.25044463e+05  3.70e-08 4.88e-12  1.07e-05    26s
  28   2.25045274e+05  2.25044517e+05  8.52e-08 4.85e-12  6.59e-06    27s
  29   2.25044978e+05  2.25044575e+05  6.83e-08 5.28e-12  3.51e-06    28s
  30   2.25044827e+05  2.25044628e+05  1.62e-07 3.14e-12  1.74e-06    28s
  31   2.25044728e+05  2.25044657e+05  2.03e-07 3.64e-12  6.12e-07    29s
  32   2.25044702e+05  2.25044661e+05  1.50e-06 3.64e-12  3.56e-07    30s
  33   2.25044683e+05  2.25044664e+05  1.52e-06 3.64e-12  1.59e-07    31s
  34   2.25044666e+05  2.25044665e+05  4.83e-06 1.82e-12  9.05e-09    32s
  35   2.25044665e+05  2.25044665e+05  3.87e-06 1.82e-12  4.03e-10    33s
  36   2.25044665e+05  2.25044665e+05  1.04e-06 3.64e-12  7.69e-12    34s

Barrier solved model in 36 iterations and 33.76 seconds
Optimal objective 2.25044665e+05

Solve time: 33.774499533
Barrier iterations: 36
